(set-info :smt-lib-version 2.6)
(set-info :category "crafted")
(set-logic QF_FF)
(define-sort FF0 () (_ FiniteField 52435875175126190479447740508185965837690552500527637822603658699938581184513))
(declare-fun return_n18_alt () FF0)
(declare-fun x19_n16_alt () FF0)
(declare-fun mul_n38_alt () FF0)
(declare-fun x18_n20_alt () FF0)
(declare-fun mul_n37_alt () FF0)
(declare-fun x17_n11_alt () FF0)
(declare-fun mul_n36_alt () FF0)
(declare-fun x16_n3_alt () FF0)
(declare-fun mul_n35_alt () FF0)
(declare-fun x15_n15_alt () FF0)
(declare-fun mul_n34_alt () FF0)
(declare-fun x14_n6_alt () FF0)
(declare-fun mul_n33_alt () FF0)
(declare-fun x13_n8_alt () FF0)
(declare-fun mul_n32_alt () FF0)
(declare-fun x12_n0_alt () FF0)
(declare-fun mul_n31_alt () FF0)
(declare-fun x11_n12_alt () FF0)
(declare-fun mul_n30_alt () FF0)
(declare-fun mul_n29_alt () FF0)
(declare-fun x9_n9_alt () FF0)
(declare-fun mul_n28_alt () FF0)
(declare-fun x8_n1_alt () FF0)
(declare-fun mul_n27_alt () FF0)
(declare-fun x7_n14_alt () FF0)
(declare-fun mul_n26_alt () FF0)
(declare-fun x6_n17_alt () FF0)
(declare-fun mul_n25_alt () FF0)
(declare-fun x5_n10_alt () FF0)
(declare-fun mul_n24_alt () FF0)
(declare-fun x4_n2_alt () FF0)
(declare-fun mul_n23_alt () FF0)
(declare-fun x3_n7_alt () FF0)
(declare-fun mul_n22_alt () FF0)
(declare-fun x2_n19_alt () FF0)
(declare-fun mul_n21_alt () FF0)
(declare-fun x1_n13_alt () FF0)
(declare-fun x0_n5_alt () FF0)
(declare-fun return_n18 () FF0)
(declare-fun x19_n16 () FF0)
(declare-fun mul_n38 () FF0)
(declare-fun x18_n20 () FF0)
(declare-fun mul_n37 () FF0)
(declare-fun x17_n11 () FF0)
(declare-fun mul_n36 () FF0)
(declare-fun x16_n3 () FF0)
(declare-fun mul_n35 () FF0)
(declare-fun x15_n15 () FF0)
(declare-fun mul_n34 () FF0)
(declare-fun x14_n6 () FF0)
(declare-fun mul_n33 () FF0)
(declare-fun x13_n8 () FF0)
(declare-fun mul_n32 () FF0)
(declare-fun x12_n0 () FF0)
(declare-fun mul_n31 () FF0)
(declare-fun x11_n12 () FF0)
(declare-fun mul_n30 () FF0)
(declare-fun mul_n29 () FF0)
(declare-fun x9_n9 () FF0)
(declare-fun mul_n28 () FF0)
(declare-fun x8_n1 () FF0)
(declare-fun mul_n27 () FF0)
(declare-fun x7_n14 () FF0)
(declare-fun mul_n26 () FF0)
(declare-fun x6_n17 () FF0)
(declare-fun mul_n25 () FF0)
(declare-fun x5_n10 () FF0)
(declare-fun mul_n24 () FF0)
(declare-fun x4_n2 () FF0)
(declare-fun mul_n23 () FF0)
(declare-fun x3_n7 () FF0)
(declare-fun mul_n22 () FF0)
(declare-fun x2_n19 () FF0)
(declare-fun mul_n21 () FF0)
(declare-fun x1_n13 () FF0)
(declare-fun x0_n5 () FF0)
(declare-fun x10_n4_alt () FF0)
(declare-fun x10_n4 () FF0)
(assert 
  (let ((let0 (as ff1 FF0)))
  (let ((let1 (as ff52435875175126190479447740508185965837690552500527637822603658699938581184512 FF0)))
  (let ((let2 return_n18_alt))
  (let ((let3 (ff.mul let2 let1)))
  (let ((let4 (ff.add let3 let0)))
  (let ((let5 x19_n16_alt))
  (let ((let6 (ff.mul let5 let1)))
  (let ((let7 (ff.add let6 let0)))
  (let ((let8 mul_n38_alt))
  (let ((let9 (ff.mul let8 let7)))
  (let ((let10 (= let9 let4)))
  (let ((let11 x18_n20_alt))
  (let ((let12 (ff.mul let11 let1)))
  (let ((let13 (ff.add let12 let0)))
  (let ((let14 mul_n37_alt))
  (let ((let15 (ff.mul let14 let13)))
  (let ((let16 (= let15 let8)))
  (let ((let17 x17_n11_alt))
  (let ((let18 (ff.mul let17 let1)))
  (let ((let19 (ff.add let18 let0)))
  (let ((let20 mul_n36_alt))
  (let ((let21 (ff.mul let20 let19)))
  (let ((let22 (= let21 let14)))
  (let ((let23 x16_n3_alt))
  (let ((let24 (ff.mul let23 let1)))
  (let ((let25 (ff.add let24 let0)))
  (let ((let26 mul_n35_alt))
  (let ((let27 (ff.mul let26 let25)))
  (let ((let28 (= let27 let20)))
  (let ((let29 x15_n15_alt))
  (let ((let30 (ff.mul let29 let1)))
  (let ((let31 (ff.add let30 let0)))
  (let ((let32 mul_n34_alt))
  (let ((let33 (ff.mul let32 let31)))
  (let ((let34 (= let33 let26)))
  (let ((let35 x14_n6_alt))
  (let ((let36 (ff.mul let35 let1)))
  (let ((let37 (ff.add let36 let0)))
  (let ((let38 mul_n33_alt))
  (let ((let39 (ff.mul let38 let37)))
  (let ((let40 (= let39 let32)))
  (let ((let41 x13_n8_alt))
  (let ((let42 (ff.mul let41 let1)))
  (let ((let43 (ff.add let42 let0)))
  (let ((let44 mul_n32_alt))
  (let ((let45 (ff.mul let44 let43)))
  (let ((let46 (= let45 let38)))
  (let ((let47 x12_n0_alt))
  (let ((let48 (ff.mul let47 let1)))
  (let ((let49 (ff.add let48 let0)))
  (let ((let50 mul_n31_alt))
  (let ((let51 (ff.mul let50 let49)))
  (let ((let52 (= let51 let44)))
  (let ((let53 x11_n12_alt))
  (let ((let54 (ff.mul let53 let1)))
  (let ((let55 (ff.add let54 let0)))
  (let ((let56 mul_n30_alt))
  (let ((let57 (ff.mul let56 let55)))
  (let ((let58 (= let57 let50)))
  (let ((let59 mul_n29_alt))
  (let ((let60 x9_n9_alt))
  (let ((let61 (ff.mul let60 let1)))
  (let ((let62 (ff.add let61 let0)))
  (let ((let63 mul_n28_alt))
  (let ((let64 (ff.mul let63 let62)))
  (let ((let65 (= let64 let59)))
  (let ((let66 x8_n1_alt))
  (let ((let67 (ff.mul let66 let1)))
  (let ((let68 (ff.add let67 let0)))
  (let ((let69 mul_n27_alt))
  (let ((let70 (ff.mul let69 let68)))
  (let ((let71 (= let70 let63)))
  (let ((let72 x7_n14_alt))
  (let ((let73 (ff.mul let72 let1)))
  (let ((let74 (ff.add let73 let0)))
  (let ((let75 mul_n26_alt))
  (let ((let76 (ff.mul let75 let74)))
  (let ((let77 (= let76 let69)))
  (let ((let78 x6_n17_alt))
  (let ((let79 (ff.mul let78 let1)))
  (let ((let80 (ff.add let79 let0)))
  (let ((let81 mul_n25_alt))
  (let ((let82 (ff.mul let81 let80)))
  (let ((let83 (= let82 let75)))
  (let ((let84 x5_n10_alt))
  (let ((let85 (ff.mul let84 let1)))
  (let ((let86 (ff.add let85 let0)))
  (let ((let87 mul_n24_alt))
  (let ((let88 (ff.mul let87 let86)))
  (let ((let89 (= let88 let81)))
  (let ((let90 x4_n2_alt))
  (let ((let91 (ff.mul let90 let1)))
  (let ((let92 (ff.add let91 let0)))
  (let ((let93 mul_n23_alt))
  (let ((let94 (ff.mul let93 let92)))
  (let ((let95 (= let94 let87)))
  (let ((let96 x3_n7_alt))
  (let ((let97 (ff.mul let96 let1)))
  (let ((let98 (ff.add let97 let0)))
  (let ((let99 mul_n22_alt))
  (let ((let100 (ff.mul let99 let98)))
  (let ((let101 (= let100 let93)))
  (let ((let102 x2_n19_alt))
  (let ((let103 (ff.mul let102 let1)))
  (let ((let104 (ff.add let103 let0)))
  (let ((let105 mul_n21_alt))
  (let ((let106 (ff.mul let105 let104)))
  (let ((let107 (= let106 let99)))
  (let ((let108 x1_n13_alt))
  (let ((let109 (ff.mul let108 let1)))
  (let ((let110 (ff.add let109 let0)))
  (let ((let111 x0_n5_alt))
  (let ((let112 (ff.mul let111 let1)))
  (let ((let113 (ff.add let112 let0)))
  (let ((let114 (ff.mul let113 let110)))
  (let ((let115 (= let114 let105)))
  (let ((let116 (and let115 let107 let101 let95 let89 let83 let77 let71 let65 let58 let52 let46 let40 let34 let28 let22 let16 let10)))
  (let ((let117 return_n18))
  (let ((let118 (ff.mul let117 let1)))
  (let ((let119 (ff.add let118 let0)))
  (let ((let120 x19_n16))
  (let ((let121 (ff.mul let120 let1)))
  (let ((let122 (ff.add let121 let0)))
  (let ((let123 mul_n38))
  (let ((let124 (ff.mul let123 let122)))
  (let ((let125 (= let124 let119)))
  (let ((let126 x18_n20))
  (let ((let127 (ff.mul let126 let1)))
  (let ((let128 (ff.add let127 let0)))
  (let ((let129 mul_n37))
  (let ((let130 (ff.mul let129 let128)))
  (let ((let131 (= let130 let123)))
  (let ((let132 x17_n11))
  (let ((let133 (ff.mul let132 let1)))
  (let ((let134 (ff.add let133 let0)))
  (let ((let135 mul_n36))
  (let ((let136 (ff.mul let135 let134)))
  (let ((let137 (= let136 let129)))
  (let ((let138 x16_n3))
  (let ((let139 (ff.mul let138 let1)))
  (let ((let140 (ff.add let139 let0)))
  (let ((let141 mul_n35))
  (let ((let142 (ff.mul let141 let140)))
  (let ((let143 (= let142 let135)))
  (let ((let144 x15_n15))
  (let ((let145 (ff.mul let144 let1)))
  (let ((let146 (ff.add let145 let0)))
  (let ((let147 mul_n34))
  (let ((let148 (ff.mul let147 let146)))
  (let ((let149 (= let148 let141)))
  (let ((let150 x14_n6))
  (let ((let151 (ff.mul let150 let1)))
  (let ((let152 (ff.add let151 let0)))
  (let ((let153 mul_n33))
  (let ((let154 (ff.mul let153 let152)))
  (let ((let155 (= let154 let147)))
  (let ((let156 x13_n8))
  (let ((let157 (ff.mul let156 let1)))
  (let ((let158 (ff.add let157 let0)))
  (let ((let159 mul_n32))
  (let ((let160 (ff.mul let159 let158)))
  (let ((let161 (= let160 let153)))
  (let ((let162 x12_n0))
  (let ((let163 (ff.mul let162 let1)))
  (let ((let164 (ff.add let163 let0)))
  (let ((let165 mul_n31))
  (let ((let166 (ff.mul let165 let164)))
  (let ((let167 (= let166 let159)))
  (let ((let168 x11_n12))
  (let ((let169 (ff.mul let168 let1)))
  (let ((let170 (ff.add let169 let0)))
  (let ((let171 mul_n30))
  (let ((let172 (ff.mul let171 let170)))
  (let ((let173 (= let172 let165)))
  (let ((let174 mul_n29))
  (let ((let175 x9_n9))
  (let ((let176 (ff.mul let175 let1)))
  (let ((let177 (ff.add let176 let0)))
  (let ((let178 mul_n28))
  (let ((let179 (ff.mul let178 let177)))
  (let ((let180 (= let179 let174)))
  (let ((let181 x8_n1))
  (let ((let182 (ff.mul let181 let1)))
  (let ((let183 (ff.add let182 let0)))
  (let ((let184 mul_n27))
  (let ((let185 (ff.mul let184 let183)))
  (let ((let186 (= let185 let178)))
  (let ((let187 x7_n14))
  (let ((let188 (ff.mul let187 let1)))
  (let ((let189 (ff.add let188 let0)))
  (let ((let190 mul_n26))
  (let ((let191 (ff.mul let190 let189)))
  (let ((let192 (= let191 let184)))
  (let ((let193 x6_n17))
  (let ((let194 (ff.mul let193 let1)))
  (let ((let195 (ff.add let194 let0)))
  (let ((let196 mul_n25))
  (let ((let197 (ff.mul let196 let195)))
  (let ((let198 (= let197 let190)))
  (let ((let199 x5_n10))
  (let ((let200 (ff.mul let199 let1)))
  (let ((let201 (ff.add let200 let0)))
  (let ((let202 mul_n24))
  (let ((let203 (ff.mul let202 let201)))
  (let ((let204 (= let203 let196)))
  (let ((let205 x4_n2))
  (let ((let206 (ff.mul let205 let1)))
  (let ((let207 (ff.add let206 let0)))
  (let ((let208 mul_n23))
  (let ((let209 (ff.mul let208 let207)))
  (let ((let210 (= let209 let202)))
  (let ((let211 x3_n7))
  (let ((let212 (ff.mul let211 let1)))
  (let ((let213 (ff.add let212 let0)))
  (let ((let214 mul_n22))
  (let ((let215 (ff.mul let214 let213)))
  (let ((let216 (= let215 let208)))
  (let ((let217 x2_n19))
  (let ((let218 (ff.mul let217 let1)))
  (let ((let219 (ff.add let218 let0)))
  (let ((let220 mul_n21))
  (let ((let221 (ff.mul let220 let219)))
  (let ((let222 (= let221 let214)))
  (let ((let223 x1_n13))
  (let ((let224 (ff.mul let223 let1)))
  (let ((let225 (ff.add let224 let0)))
  (let ((let226 x0_n5))
  (let ((let227 (ff.mul let226 let1)))
  (let ((let228 (ff.add let227 let0)))
  (let ((let229 (ff.mul let228 let225)))
  (let ((let230 (= let229 let220)))
  (let ((let231 (and let230 let222 let216 let210 let204 let198 let192 let186 let180 let173 let167 let161 let155 let149 let143 let137 let131 let125)))
  (let ((let232 (= let117 let2)))
  (let ((let233 (not let232)))
  (let ((let234 (= let132 let17)))
  (let ((let235 (= let226 let111)))
  (let ((let236 (= let120 let5)))
  (let ((let237 (= let156 let41)))
  (let ((let238 (= let126 let11)))
  (let ((let239 (= let168 let53)))
  (let ((let240 (= let187 let72)))
  (let ((let241 x10_n4_alt))
  (let ((let242 x10_n4))
  (let ((let243 (= let242 let241)))
  (let ((let244 (= let138 let23)))
  (let ((let245 (= let217 let102)))
  (let ((let246 (= let223 let108)))
  (let ((let247 (= let205 let90)))
  (let ((let248 (= let175 let60)))
  (let ((let249 (= let193 let78)))
  (let ((let250 (= let181 let66)))
  (let ((let251 (= let199 let84)))
  (let ((let252 (= let162 let47)))
  (let ((let253 (= let144 let29)))
  (let ((let254 (= let150 let35)))
  (let ((let255 (= let211 let96)))
  (let ((let256 (and let255 let254 let253 let252 let251 let250 let249 let248 let247 let246 let245 let244 let243 let240 let239 let238 let237 let236 let235 let234)))
  (let ((let257 (and let256 let233 let231 let116)))
  let257
))))))))))))))))))))))))))))))))))))))))))))))))))))))))))))))))))))))))))))))))))))))))))))))))))))))))))))))))))))))))))))))))))))))))))))))))))))))))))))))))))))))))))))))))))))))))))))))))))))))))))))))))))))))))))))))))))))))))))))))))))))))))))))))))))
)
(check-sat)
